m = 4
nBlocks = 1
blockStruct = 3
lowrank_struct = -1 -1 -1 -1 1
c = -1 -1 -1 -1

0 1 1 1 -0.5
0 1 2 2 -0.5
0 1 3 3 -0.5

1 1 1 1 -1
2 1 2 2 -1
3 1 3 3 -1

4 P 1 1 1 -1
4 P 1 2 1 -2
4 P 1 3 1 -3
4 D 1 1 -1